NAME          ClpDefau  FREE
ROWS
 N  OBJROW
 L  ZMUNI1_PCT
 L  ZMUNI2_PCT
 L  ZMUNI3_PCT
 L  ZMUNI4_PCT
 L  ZMUNI5_PCT
 L  ZMUNI6_PCT
 L  ZMUNI7_PCT
 L  ZMUNI8_PCT
 L  ZMUNI9_PCT
COLUMNS
    QMUNI1 OBJROW 1.          
    QMUNI1 ZMUNI1_PCT 28404.7127  
    QMUNI1 ZMUNI2_PCT 1765.8234   
    QMUNI1 ZMUNI3_PCT 4156.8757   
    QMUNI1 ZMUNI4_PCT 3030.82466  
    QMUNI1 ZMUNI5_PCT  -299.4537  
    QMUNI1 ZMUNI6_PCT  -53.978    
    QMUNI1 ZMUNI7_PCT 1603.1266   
    QMUNI1 ZMUNI8_PCT 1419.2581   
    QMUNI1 ZMUNI9_PCT 712.9669    
    QMUNI2 OBJROW 1.          
    QMUNI2 ZMUNI1_PCT 1786.232    
    QMUNI2 ZMUNI2_PCT 33680.3436  
    QMUNI2 ZMUNI3_PCT 2587.8907   
    QMUNI2 ZMUNI4_PCT 2727.46086  
    QMUNI2 ZMUNI5_PCT 94.3184     
    QMUNI2 ZMUNI6_PCT 155.4489    
    QMUNI2 ZMUNI7_PCT 1022.1482   
    QMUNI2 ZMUNI8_PCT 1298.1415   
    QMUNI2 ZMUNI9_PCT 1237.1063   
    QMUNI3 OBJROW 1.          
    QMUNI3 ZMUNI1_PCT 4269.9814   
    QMUNI3 ZMUNI2_PCT 2827.2629   
    QMUNI3 ZMUNI3_PCT 30036.9263  
    QMUNI3 ZMUNI4_PCT 5202.43644  
    QMUNI3 ZMUNI5_PCT 193.4052    
    QMUNI3 ZMUNI6_PCT 340.3663    
    QMUNI3 ZMUNI7_PCT 1796.9132   
    QMUNI3 ZMUNI8_PCT 1826.2863   
    QMUNI3 ZMUNI9_PCT 1310.7299   
    QMUNI4 OBJROW 1.          
    QMUNI4 ZMUNI1_PCT 3472.2328   
    QMUNI4 ZMUNI2_PCT 3214.8361   
    QMUNI4 ZMUNI3_PCT 5657.959    
    QMUNI4 ZMUNI4_PCT 105571.79451
    QMUNI4 ZMUNI5_PCT 309.372     
    QMUNI4 ZMUNI6_PCT 435.8291    
    QMUNI4 ZMUNI7_PCT 1513.8626   
    QMUNI4 ZMUNI8_PCT 1556.778    
    QMUNI4 ZMUNI9_PCT 1134.1095   
    QMUNI5 OBJROW 1.          
    QMUNI5 ZMUNI1_PCT 239.8491    
    QMUNI5 ZMUNI2_PCT 58.1741     
    QMUNI5 ZMUNI3_PCT 176.6205    
    QMUNI5 ZMUNI4_PCT 119.68612   
    QMUNI5 ZMUNI5_PCT 33798.6946  
    QMUNI5 ZMUNI6_PCT 2812.6716   
    QMUNI5 ZMUNI7_PCT 321.3883    
    QMUNI5 ZMUNI8_PCT 177.9556    
    QMUNI5 ZMUNI9_PCT  -3.4333    
    QMUNI6 OBJROW 1.          
    QMUNI6 ZMUNI1_PCT 400.8293    
    QMUNI6 ZMUNI2_PCT 241.6611    
    QMUNI6 ZMUNI3_PCT 329.2084    
    QMUNI6 ZMUNI4_PCT 263.69094   
    QMUNI6 ZMUNI5_PCT 2756.8817   
    QMUNI6 ZMUNI6_PCT 31689.8346  
    QMUNI6 ZMUNI7_PCT 555.8014    
    QMUNI6 ZMUNI8_PCT 398.2544    
    QMUNI6 ZMUNI9_PCT 351.5243    
    QMUNI7 OBJROW 1.          
    QMUNI7 ZMUNI1_PCT 1361.8469   
    QMUNI7 ZMUNI2_PCT 818.0618    
    QMUNI7 ZMUNI3_PCT 1208.8776   
    QMUNI7 ZMUNI4_PCT 925.5886    
    QMUNI7 ZMUNI5_PCT  -81.8252   
    QMUNI7 ZMUNI6_PCT 170.9938    
    QMUNI7 ZMUNI7_PCT 28308.8684  
    QMUNI7 ZMUNI8_PCT 2279.2816   
    QMUNI7 ZMUNI9_PCT 821.8765    
    QMUNI8 OBJROW 1.          
    QMUNI8 ZMUNI1_PCT 1369.0949   
    QMUNI8 ZMUNI2_PCT 1285.1715   
    QMUNI8 ZMUNI3_PCT 1409.34     
    QMUNI8 ZMUNI4_PCT 1129.72259  
    QMUNI8 ZMUNI5_PCT 272.1787    
    QMUNI8 ZMUNI6_PCT 403.6903    
    QMUNI8 ZMUNI7_PCT 2759.9335   
    QMUNI8 ZMUNI8_PCT 27706.7184  
    QMUNI8 ZMUNI9_PCT 2008.2473   
    QMUNI9 OBJROW 1.          
    QMUNI9 ZMUNI1_PCT 448.7992    
    QMUNI9 ZMUNI2_PCT 847.0535    
    QMUNI9 ZMUNI3_PCT 577.1637    
    QMUNI9 ZMUNI4_PCT 513.07678   
    QMUNI9 ZMUNI5_PCT  -406.0745  
    QMUNI9 ZMUNI6_PCT  -319.5763  
    QMUNI9 ZMUNI7_PCT 477.9816    
    QMUNI9 ZMUNI8_PCT 1131.2485   
    QMUNI9 ZMUNI9_PCT 25920.2957  
RHS
    RHS ZMUNI1_PCT 0.1580910911
    RHS ZMUNI2_PCT 0.3019984034
    RHS ZMUNI3_PCT 0.2479772059
    RHS ZMUNI4_PCT 0.1410617426
    RHS ZMUNI5_PCT  -0.2455639 
    RHS ZMUNI6_PCT  -0.17535223
    RHS ZMUNI7_PCT 0.0745689914
    RHS ZMUNI8_PCT 0.4454681228
    RHS ZMUNI9_PCT 0.9293151089
BOUNDS
 LO BOUND QMUNI1 -0.000941857
 UP BOUND QMUNI1      1.1e+10
 LO BOUND QMUNI2 -0.000673138
 UP BOUND QMUNI2      1.1e+10
 LO BOUND QMUNI3 -0.000738421
 UP BOUND QMUNI3      1.1e+10
 LO BOUND QMUNI4 -0.000260353
 UP BOUND QMUNI4      1.1e+10
 LO BOUND QMUNI5 -0.000550646
 UP BOUND QMUNI5      1.1e+10
 LO BOUND QMUNI6 -0.000717568
 UP BOUND QMUNI6      1.1e+10
 LO BOUND QMUNI7 -0.000427437
 UP BOUND QMUNI7      1.1e+10
 LO BOUND QMUNI8 -0.000521713
 UP BOUND QMUNI8      1.1e+10
 LO BOUND QMUNI9 -0.000554689
 UP BOUND QMUNI9      1.1e+10
ENDATA
